% seed = 0

mint = 23;
% maxt = 62;

nActs = 27;
dur = [0,5,6,2,1,4,4,1,1,2,4,1,5,3,3,2,2,2,2,1,2,3,2,2,1,1,0];

nSkills = 3;
sreq = [| 0,0,0,
	| 3,0,2,
	| 5,0,0,
	| 5,0,2,
	| 4,1,4,
	| 5,0,4,
	| 3,0,0,
	| 0,0,4,
	| 3,0,2,
	| 0,2,4,
	| 0,0,2,
	| 4,1,4,
	| 1,4,4,
	| 2,2,2,
	| 5,5,0,
	| 1,0,4,
	| 4,0,0,
	| 3,0,3,
	| 0,3,3,
	| 0,4,0,
	| 1,6,2,
	| 0,2,1,
	| 1,0,4,
	| 0,0,1,
	| 0,1,3,
	| 2,2,2,
	| 0,0,0, |];

% SumOfsreq = 142;

nResources = 22;
mastery = [| true,true,false,
	| true,false,true,
	| true,true,false,
	| true,true,false,
	| false,true,false,
	| true,true,false,
	| true,true,true,
	| false,true,true,
	| false,false,true,
	| false,false,true,
	| true,false,false,
	| true,false,false,
	| false,true,true,
	| false,true,true,
	| false,true,true,
	| false,true,true,
	| false,true,false,
	| false,true,false,
	| false,true,false,
	| true,false,false,
	| false,false,true,
	| false,false,true, |];

nPrecs = 36;
pred = [1,1,1,2,3,3,4,5,6,6,7,7,8,9,9,10,11,11,12,13,14,14,15,16,16,17,17,18,19,20,21,22,23,24,25,26];
succ = [2,3,4,6,5,7,8,9,9,11,10,12,9,13,16,13,14,15,13,17,17,19,18,17,20,22,23,24,21,21,25,26,25,26,27,27];

nUnrels = 146;
unpred = [2,2,2,2,2,2,2,3,3,3,3,3,3,3,3,3,4,4,4,4,4,4,4,4,4,4,4,5,5,5,5,5,5,5,5,5,5,5,6,6,6,6,7,7,7,7,7,7,7,7,7,7,7,8,8,8,8,8,8,8,8,9,9,9,9,9,9,9,9,10,10,10,10,10,10,10,10,10,10,11,11,11,11,12,12,12,12,12,12,12,12,13,13,13,13,13,13,13,13,14,14,14,14,14,15,15,15,15,15,15,15,15,16,16,16,17,17,17,17,17,18,18,18,18,18,18,19,19,19,19,19,20,20,20,20,21,21,21,21,22,22,22,23,23,24,25];
unsucc = [3,4,5,7,8,10,12,4,6,8,11,14,15,18,19,24,5,6,7,10,11,12,14,15,18,19,24,6,7,8,10,11,12,14,15,18,19,24,7,8,10,12,8,9,11,14,15,16,18,19,20,21,24,10,11,12,14,15,18,19,24,10,11,12,14,15,18,19,24,11,12,14,15,16,18,19,20,21,24,12,13,16,20,14,15,16,18,19,20,21,24,14,15,16,18,19,20,21,24,15,16,18,20,24,16,17,19,20,21,22,23,25,18,19,24,18,19,20,21,24,19,20,21,22,23,25,20,22,23,24,26,22,23,24,26,22,23,24,26,23,24,25,24,26,25,26];

USEFUL_RES = [{},
	{1,2,3,4,6,7,8,9,10,11,12,13,14,15,16,20,21,22},
	{1,2,3,4,6,7,11,12,20},
	{1,2,3,4,6,7,8,9,10,11,12,13,14,15,16,20,21,22},
	{1,2,3,4,5,6,7,8,9,10,11,12,13,14,15,16,17,18,19,20,21,22},
	{1,2,3,4,6,7,8,9,10,11,12,13,14,15,16,20,21,22},
	{1,2,3,4,6,7,11,12,20},
	{2,7,8,9,10,13,14,15,16,21,22},
	{1,2,3,4,6,7,8,9,10,11,12,13,14,15,16,20,21,22},
	{1,2,3,4,5,6,7,8,9,10,13,14,15,16,17,18,19,21,22},
	{2,7,8,9,10,13,14,15,16,21,22},
	{1,2,3,4,5,6,7,8,9,10,11,12,13,14,15,16,17,18,19,20,21,22},
	{1,2,3,4,5,6,7,8,9,10,11,12,13,14,15,16,17,18,19,20,21,22},
	{1,2,3,4,5,6,7,8,9,10,11,12,13,14,15,16,17,18,19,20,21,22},
	{1,2,3,4,5,6,7,8,11,12,13,14,15,16,17,18,19,20},
	{1,2,3,4,6,7,8,9,10,11,12,13,14,15,16,20,21,22},
	{1,2,3,4,6,7,11,12,20},
	{1,2,3,4,6,7,8,9,10,11,12,13,14,15,16,20,21,22},
	{1,2,3,4,5,6,7,8,9,10,13,14,15,16,17,18,19,21,22},
	{1,3,4,5,6,7,8,13,14,15,16,17,18,19},
	{1,2,3,4,5,6,7,8,9,10,11,12,13,14,15,16,17,18,19,20,21,22},
	{1,2,3,4,5,6,7,8,9,10,13,14,15,16,17,18,19,21,22},
	{1,2,3,4,6,7,8,9,10,11,12,13,14,15,16,20,21,22},
	{2,7,8,9,10,13,14,15,16,21,22},
	{1,2,3,4,5,6,7,8,9,10,13,14,15,16,17,18,19,21,22},
	{1,2,3,4,5,6,7,8,9,10,11,12,13,14,15,16,17,18,19,20,21,22},
	{}];

POTENTIAL_ACT = [{2,3,4,5,6,7,9,10,12,13,14,15,16,17,18,19,20,21,22,23,25,26},
	{2,3,4,5,6,7,8,9,10,11,12,13,14,15,16,17,18,19,21,22,23,24,25,26},
	{2,3,4,5,6,7,9,10,12,13,14,15,16,17,18,19,20,21,22,23,25,26},
	{2,3,4,5,6,7,9,10,12,13,14,15,16,17,18,19,20,21,22,23,25,26},
	{5,10,12,13,14,15,19,20,21,22,25,26},
	{2,3,4,5,6,7,9,10,12,13,14,15,16,17,18,19,20,21,22,23,25,26},
	{2,3,4,5,6,7,8,9,10,11,12,13,14,15,16,17,18,19,20,21,22,23,24,25,26},
	{2,4,5,6,8,9,10,11,12,13,14,15,16,18,19,20,21,22,23,24,25,26},
	{2,4,5,6,8,9,10,11,12,13,14,16,18,19,21,22,23,24,25,26},
	{2,4,5,6,8,9,10,11,12,13,14,16,18,19,21,22,23,24,25,26},
	{2,3,4,5,6,7,9,12,13,14,15,16,17,18,21,23,26},
	{2,3,4,5,6,7,9,12,13,14,15,16,17,18,21,23,26},
	{2,4,5,6,8,9,10,11,12,13,14,15,16,18,19,20,21,22,23,24,25,26},
	{2,4,5,6,8,9,10,11,12,13,14,15,16,18,19,20,21,22,23,24,25,26},
	{2,4,5,6,8,9,10,11,12,13,14,15,16,18,19,20,21,22,23,24,25,26},
	{2,4,5,6,8,9,10,11,12,13,14,15,16,18,19,20,21,22,23,24,25,26},
	{5,10,12,13,14,15,19,20,21,22,25,26},
	{5,10,12,13,14,15,19,20,21,22,25,26},
	{5,10,12,13,14,15,19,20,21,22,25,26},
	{2,3,4,5,6,7,9,12,13,14,15,16,17,18,21,23,26},
	{2,4,5,6,8,9,10,11,12,13,14,16,18,19,21,22,23,24,25,26},
	{2,4,5,6,8,9,10,11,12,13,14,16,18,19,21,22,23,24,25,26}];
